c 
p cnf 10 40
4 9 -5 0
9 7 8 0
-9 2 -10 0
-9 -2 -10 0
4 -3 8 0
-5 1 4 0
2 -3 -7 0
-2 -4 -10 0
-5 -9 1 0
7 6 9 0
-1 4 10 0
-7 -9 10 0
9 10 -6 0
3 -5 -10 0
-1 9 -4 0
-1 6 4 0
7 -8 -1 0
-4 -9 -7 0
10 5 1 0
-5 4 -7 0
4 -1 6 0
4 -2 3 0
-4 -10 -9 0
-6 -10 -9 0
-2 8 4 0
1 -8 -10 0
4 -9 -5 0
-7 -4 6 0
8 1 -10 0
-4 1 8 0
-10 7 3 0
-2 8 -4 0
-9 -6 -10 0
-8 3 -6 0
-10 -3 1 0
6 7 -8 0
-3 -10 -6 0
2 -3 7 0
-9 -8 -1 0
-2 8 4 0
